original problem has 368 variables (231 bin, 0 int, 0 impl, 137 cont) and 137 constraints
1/1 feasible solution given by solution candidate storage, new primal bound 8.090000e+03

presolving:
(round 1, fast)       136 del vars, 0 del conss, 2 add conss, 0 chg bounds, 0 chg sides, 0 chg coeffs, 0 upgd conss, 0 impls, 0 clqs
(round 2, fast)       136 del vars, 1 del conss, 2 add conss, 0 chg bounds, 132 chg sides, 0 chg coeffs, 0 upgd conss, 0 impls, 0 clqs
   (0.0s) running MILP presolver
   (0.0s) MILP presolver (1 rounds): 0 aggregations, 0 fixings, 0 bound changes
(round 3, exhaustive) 136 del vars, 2 del conss, 2 add conss, 0 chg bounds, 133 chg sides, 0 chg coeffs, 0 upgd conss, 0 impls, 0 clqs
(round 4, exhaustive) 136 del vars, 2 del conss, 2 add conss, 0 chg bounds, 133 chg sides, 0 chg coeffs, 131 upgd conss, 0 impls, 0 clqs
   (0.0s) probing cycle finished: starting next cycle
presolving (5 rounds: 5 fast, 3 medium, 3 exhaustive):
 136 deleted vars, 2 deleted constraints, 2 added constraints, 0 tightened bounds, 0 added holes, 133 changed sides, 0 changed coefficients
 231 implications, 0 cliques
presolved problem has 232 variables (231 bin, 0 int, 0 impl, 1 cont) and 137 constraints
     53 constraints of type <knapsack>
      6 constraints of type <linear>
     78 constraints of type <logicor>
Presolving Time: 0.02
transformed 1/1 original solutions to the transformed problem space

 time | node  | left  |LP iter|LP it/n|mem/heur|mdpt |vars |cons |rows |cuts |sepa|confs|strbr|  dualbound   | primalbound  |  gap   | compl. 
  0.0s|     1 |     0 |   409 |     - |  4311k |   0 | 232 | 137 | 137 |   0 |  0 |   0 |   0 | 7.649866e+03 | 8.090000e+03 |   5.75%| unknown
  0.0s|     1 |     2 |   409 |     - |  4311k |   0 | 232 | 137 | 137 |   0 |  1 |   0 |   0 | 7.649866e+03 | 8.090000e+03 |   5.75%| unknown

SCIP Status        : solving was interrupted [node limit reached]
Solving Time (sec) : 0.03
Solving Nodes      : 1
Primal Bound       : +8.09000000000000e+03 (1 solutions)
Dual Bound         : +7.64986613382250e+03
Gap                : 5.75 %
wrote problem to file /mnt/lscratch/users/dferrario/Adaptive-Cutsel-MILP/TransformedInstances/23588__trans__seed__1.mps
